SCIP version 5.0.0 [precision: 8 byte] [memory: block] [mode: optimized] [LP solver: NONE] [GitHash: 3bbd232]
Copyright (C) 2002-2017 Konrad-Zuse-Zentrum fuer Informationstechnik Berlin (ZIB)

External codes: 
  Readline EditLine w  GNU library for command line editing (gnu.org/s/readline)
  CppAD 20160000.1     Algorithmic Differentiation of C++ algorithms developed by B. Bell (www.coin-or.org/CppAD)
  ZLIB 1.2.5           General purpose compression library by J. Gailly and M. Adler (zlib.net)
  GMP 6.1.2            GNU Multiple Precision Arithmetic Library developed by T. Granlund (gmplib.org)

user parameter file <scip.set> not found - using default parameters

read problem <../../Split_data/output/biodeg/2/0_sample_biodeg.logreg>
============

File name	:	../../Split_data/output/biodeg/2/0_sample_biodeg.logreg
Problem name 	:	0_sample_biodeg
Number of data	:	844
Number of var	:	41
The given data has linear dependence
1 sets of column vector are linearly dependent:
{ 19}, 

[dim=1] time: 0.029577
[dim=2] time: 0.061302
[dim=3] time: 0.098529
[dim=4] time: 0.132024
[dim=5] time: 0.164422
[dim=6] time: 0.202638
[dim=7] time: 0.237711
[dim=8] time: 0.265871
[dim=9] time: 0.293723
[dim=10] time: 0.325746
[dim=11] time: 0.363845
[dim=12] time: 0.392106
[dim=13] time: 0.413367
[dim=14] time: 0.430403
[dim=15] time: 0.446674
[dim=16] time: 0.471384
[dim=17] time: 0.485765
[dim=18] time: 0.501347
[dim=19] time: 0.538234
[dim=20] time: 0.551169
[dim=21] time: 0.564445
[dim=22] Time of forward = 0.577415sec.
AIC: 524.245
k: 21

[dim=40] time: 0.142626
[dim=39] time: 0.209663
[dim=38] time: 0.254593
[dim=37] time: 0.293276
[dim=36] time: 0.350323
[dim=35] time: 0.430117
[dim=34] time: 0.476552
[dim=33] time: 0.530465
[dim=32] time: 0.587381
[dim=31] time: 0.630699
[dim=30] time: 0.664493
[dim=29] time: 0.746262
[dim=28] time: 0.774874
[dim=27] time: 0.800816
[dim=26] time: 0.827212
[dim=25] time: 0.85935
[dim=24] time: 0.922981
[dim=23] time: 0.949677
[dim=22] time: 0.971764
[dim=21] Time of backward = 0.994451sec.
AIC: 524.829
k: 22
